
<<< setup


<<< generate

Version identifier: 22.1.0.0 | 2022-03-09 | 1a383f8ce
Tried aggregator 1 time.
MIP Presolve eliminated 1247 rows and 841 columns.
Reduced MIP has 1335 rows, 23549 columns, and 145633 nonzeros.
Reduced MIP has 23548 binaries, 1 generals, 0 SOSs, and 0 indicators.
Presolve time = 0,07 sec. (95,13 ticks)
Tried aggregator 1 time.
Detecting symmetries...
Reduced MIP has 1335 rows, 23549 columns, and 145633 nonzeros.
Reduced MIP has 23548 binaries, 1 generals, 0 SOSs, and 0 indicators.
Presolve time = 0,06 sec. (89,40 ticks)
Probing time = 0,02 sec. (7,54 ticks)
Clique table members: 1247.
MIP emphasis: balance optimality and feasibility.
MIP search method: dynamic search.
Parallel mode: deterministic, using up to 12 threads.
Root relaxation solution time = 1,98 sec. (1716,25 ticks)

        Nodes                                         Cuts/
   Node  Left     Objective  IInf  Best Integer    Best Bound    ItCnt     Gap

      0     0     1550,0000  1189                   1550,0000       11         
*     0+    0                         1550,0000     1550,0000             0,00%
      0     0        cutoff           1550,0000     1550,0000       11    0,00%
Elapsed time = 33,85 sec. (59681,17 ticks, tree = 0,01 MB, solutions = 1)

Root node processing (before b&c):
  Real time             =   33,86 sec. (59682,45 ticks)
Parallel b&c, 12 threads:
  Real time             =    0,00 sec. (0,00 ticks)
  Sync time (average)   =    0,00 sec.
  Wait time (average)   =    0,00 sec.
                          ------------
Total (root+branch&cut) =   33,86 sec. (59682,45 ticks)

<<< solve


OBJECTIVE: 1550
1 is free in round 14
1 plays 14 white matches, and 14 black matches
2 is free in round 7
2 plays 14 white matches, and 14 black matches
3 is free in round 10
3 plays 14 white matches, and 14 black matches
4 is free in round 19
4 plays 14 white matches, and 14 black matches
5 is free in round 9
5 plays 14 white matches, and 14 black matches
6 is free in round 1
6 plays 14 white matches, and 14 black matches
7 is free in round 11
7 plays 14 white matches, and 14 black matches
8 is free in round 18
8 plays 14 white matches, and 14 black matches
9 is free in round 27
9 plays 14 white matches, and 14 black matches
10 is free in round 22
10 plays 14 white matches, and 14 black matches
11 is free in round 28
11 plays 14 white matches, and 14 black matches
12 is free in round 20
12 plays 14 white matches, and 14 black matches
13 is free in round 12
13 plays 14 white matches, and 14 black matches
14 is free in round 4
14 plays 14 white matches, and 14 black matches
15 is free in round 2
15 plays 14 white matches, and 14 black matches
16 is free in round 24
16 plays 14 white matches, and 14 black matches
17 is free in round 25
17 plays 14 white matches, and 14 black matches
18 is free in round 26
18 plays 14 white matches, and 14 black matches
19 is free in round 6
19 plays 14 white matches, and 14 black matches
20 is free in round 15
20 plays 14 white matches, and 14 black matches
21 is free in round 8
21 plays 14 white matches, and 14 black matches
22 is free in round 17
22 plays 14 white matches, and 14 black matches
23 is free in round 13
23 plays 14 white matches, and 14 black matches
24 is free in round 5
24 plays 14 white matches, and 14 black matches
25 is free in round 21
25 plays 14 white matches, and 14 black matches
26 is free in round 16
26 plays 14 white matches, and 14 black matches
27 is free in round 23
27 plays 14 white matches, and 14 black matches
28 is free in round 3
28 plays 14 white matches, and 14 black matches
29 is free in round 29
29 plays 14 white matches, and 14 black matches
Slot 1
1 white, 2 black
3 white, 14 black
4 white, 22 black
7 white, 24 black
9 white, 28 black
11 white, 8 black
12 white, 27 black
15 white, 21 black
17 white, 26 black
18 white, 16 black
20 white, 13 black
23 white, 10 black
25 white, 5 black
29 white, 19 black

Slot 2
2 white, 8 black
4 white, 25 black
5 white, 27 black
6 white, 23 black
9 white, 3 black
10 white, 12 black
11 white, 17 black
16 white, 24 black
18 white, 7 black
19 white, 13 black
20 white, 28 black
21 white, 29 black
22 white, 14 black
26 white, 1 black

Slot 3
1 white, 16 black
2 white, 18 black
5 white, 19 black
6 white, 3 black
7 white, 17 black
11 white, 21 black
15 white, 4 black
22 white, 9 black
23 white, 20 black
24 white, 14 black
25 white, 12 black
26 white, 8 black
27 white, 10 black
29 white, 13 black

Slot 4
1 white, 10 black
2 white, 27 black
3 white, 24 black
4 white, 7 black
5 white, 13 black
12 white, 23 black
16 white, 15 black
17 white, 20 black
19 white, 11 black
21 white, 9 black
22 white, 6 black
25 white, 8 black
26 white, 28 black
29 white, 18 black

Slot 5
1 white, 4 black
5 white, 10 black
7 white, 26 black
9 white, 15 black
12 white, 3 black
13 white, 11 black
14 white, 6 black
18 white, 17 black
19 white, 20 black
21 white, 2 black
22 white, 25 black
23 white, 29 black
27 white, 16 black
28 white, 8 black

Slot 6
2 white, 5 black
4 white, 11 black
7 white, 28 black
8 white, 21 black
9 white, 6 black
13 white, 1 black
16 white, 10 black
17 white, 29 black
18 white, 15 black
20 white, 3 black
22 white, 12 black
25 white, 24 black
26 white, 23 black
27 white, 14 black

Slot 7
3 white, 15 black
6 white, 24 black
9 white, 23 black
10 white, 26 black
11 white, 18 black
13 white, 8 black
14 white, 16 black
19 white, 7 black
20 white, 1 black
21 white, 12 black
25 white, 17 black
27 white, 4 black
28 white, 5 black
29 white, 22 black

Slot 8
3 white, 13 black
6 white, 1 black
7 white, 12 black
8 white, 24 black
9 white, 18 black
10 white, 4 black
11 white, 28 black
14 white, 25 black
15 white, 20 black
17 white, 2 black
19 white, 16 black
22 white, 23 black
26 white, 27 black
29 white, 5 black

Slot 9
2 white, 14 black
4 white, 3 black
7 white, 13 black
8 white, 16 black
9 white, 27 black
10 white, 22 black
11 white, 25 black
12 white, 19 black
18 white, 6 black
21 white, 1 black
24 white, 17 black
26 white, 20 black
28 white, 23 black
29 white, 15 black

Slot 10
1 white, 7 black
4 white, 28 black
6 white, 21 black
8 white, 9 black
12 white, 5 black
13 white, 26 black
15 white, 11 black
16 white, 17 black
18 white, 10 black
19 white, 2 black
20 white, 27 black
23 white, 14 black
24 white, 22 black
29 white, 25 black

Slot 11
2 white, 4 black
3 white, 26 black
5 white, 16 black
8 white, 1 black
10 white, 21 black
14 white, 18 black
15 white, 13 black
19 white, 22 black
20 white, 6 black
23 white, 17 black
25 white, 9 black
27 white, 11 black
28 white, 24 black
29 white, 12 black

Slot 12
3 white, 1 black
5 white, 4 black
6 white, 29 black
8 white, 10 black
12 white, 2 black
15 white, 26 black
17 white, 9 black
19 white, 14 black
21 white, 20 black
22 white, 7 black
23 white, 18 black
24 white, 11 black
27 white, 25 black
28 white, 16 black

Slot 13
8 white, 20 black
9 white, 26 black
13 white, 12 black
14 white, 7 black
15 white, 1 black
16 white, 4 black
17 white, 5 black
19 white, 18 black
21 white, 28 black
22 white, 3 black
24 white, 10 black
25 white, 2 black
27 white, 6 black
29 white, 11 black

Slot 14
3 white, 23 black
4 white, 21 black
5 white, 14 black
7 white, 15 black
8 white, 17 black
9 white, 16 black
10 white, 29 black
11 white, 2 black
12 white, 26 black
13 white, 6 black
18 white, 24 black
19 white, 28 black
25 white, 20 black
27 white, 22 black

Slot 15
1 white, 27 black
2 white, 3 black
5 white, 15 black
9 white, 4 black
10 white, 7 black
11 white, 23 black
12 white, 18 black
13 white, 17 black
14 white, 8 black
16 white, 22 black
19 white, 25 black
21 white, 26 black
24 white, 29 black
28 white, 6 black

Slot 16
2 white, 10 black
3 white, 21 black
5 white, 23 black
7 white, 8 black
11 white, 16 black
12 white, 1 black
13 white, 28 black
18 white, 4 black
20 white, 9 black
22 white, 17 black
24 white, 19 black
25 white, 6 black
27 white, 15 black
29 white, 14 black

Slot 17
1 white, 17 black
2 white, 29 black
3 white, 16 black
6 white, 15 black
8 white, 27 black
10 white, 11 black
14 white, 4 black
19 white, 9 black
20 white, 7 black
21 white, 18 black
24 white, 23 black
25 white, 13 black
26 white, 5 black
28 white, 12 black

Slot 18
1 white, 22 black
3 white, 29 black
4 white, 23 black
5 white, 20 black
6 white, 10 black
11 white, 7 black
13 white, 18 black
14 white, 9 black
15 white, 19 black
16 white, 2 black
17 white, 12 black
24 white, 26 black
27 white, 21 black
28 white, 25 black

Slot 19
2 white, 13 black
5 white, 11 black
7 white, 29 black
10 white, 9 black
14 white, 1 black
15 white, 12 black
16 white, 6 black
20 white, 24 black
21 white, 19 black
22 white, 18 black
23 white, 8 black
25 white, 26 black
27 white, 3 black
28 white, 17 black

Slot 20
6 white, 26 black
7 white, 9 black
8 white, 4 black
10 white, 28 black
11 white, 22 black
13 white, 14 black
15 white, 25 black
16 white, 21 black
17 white, 3 black
18 white, 1 black
23 white, 2 black
24 white, 5 black
27 white, 19 black
29 white, 20 black

Slot 21
1 white, 24 black
2 white, 28 black
4 white, 19 black
5 white, 6 black
11 white, 12 black
13 white, 9 black
15 white, 14 black
16 white, 26 black
17 white, 10 black
18 white, 3 black
20 white, 22 black
21 white, 7 black
27 white, 23 black
29 white, 8 black

Slot 22
1 white, 19 black
2 white, 15 black
4 white, 24 black
5 white, 22 black
6 white, 17 black
7 white, 25 black
8 white, 3 black
13 white, 21 black
14 white, 12 black
16 white, 23 black
20 white, 18 black
26 white, 11 black
28 white, 27 black
29 white, 9 black

Slot 23
1 white, 29 black
3 white, 11 black
7 white, 6 black
8 white, 19 black
9 white, 24 black
10 white, 13 black
12 white, 4 black
14 white, 28 black
16 white, 20 black
17 white, 21 black
18 white, 5 black
22 white, 15 black
25 white, 23 black
26 white, 2 black

Slot 24
1 white, 25 black
3 white, 5 black
4 white, 20 black
6 white, 2 black
11 white, 9 black
12 white, 8 black
14 white, 26 black
15 white, 17 black
18 white, 27 black
19 white, 10 black
21 white, 24 black
22 white, 13 black
23 white, 7 black
28 white, 29 black

Slot 25
1 white, 11 black
2 white, 9 black
4 white, 6 black
7 white, 3 black
8 white, 5 black
10 white, 25 black
12 white, 20 black
14 white, 21 black
16 white, 29 black
23 white, 19 black
24 white, 15 black
26 white, 18 black
27 white, 13 black
28 white, 22 black

Slot 26
2 white, 7 black
3 white, 25 black
6 white, 19 black
8 white, 22 black
9 white, 12 black
10 white, 14 black
13 white, 16 black
15 white, 28 black
17 white, 4 black
20 white, 11 black
21 white, 5 black
23 white, 1 black
24 white, 27 black
26 white, 29 black

Slot 27
1 white, 5 black
4 white, 13 black
6 white, 11 black
15 white, 8 black
16 white, 7 black
17 white, 14 black
20 white, 10 black
22 white, 2 black
23 white, 21 black
24 white, 12 black
25 white, 18 black
26 white, 19 black
28 white, 3 black
29 white, 27 black

Slot 28
4 white, 29 black
5 white, 7 black
6 white, 8 black
9 white, 1 black
10 white, 15 black
12 white, 16 black
14 white, 20 black
17 white, 27 black
18 white, 28 black
19 white, 3 black
21 white, 25 black
23 white, 13 black
24 white, 2 black
26 white, 22 black

Slot 29
3 white, 10 black
7 white, 27 black
9 white, 5 black
11 white, 14 black
12 white, 6 black
13 white, 24 black
17 white, 19 black
18 white, 8 black
20 white, 2 black
22 white, 21 black
23 white, 15 black
25 white, 16 black
26 white, 4 black
28 white, 1 black


<<< post process


<<< done

